c 154_3_checker_6cl.cnf
c
c field = 154
c formula set type = 3_checker_6cl
c
p cnf 6 42
302 
304 
308 
-311 
-300 
-312 
303 
305 
309 
-310 
-301 
-313 
304 
308 
310 
-303 
-300 
-312 
305 
309 
311 
-302 
-301 
-313 
304 
308 
310 
-313 
-302 
-314 
305 
309 
311 
-312 
-303 
-315 
308 
310 
312 
-305 
-302 
-314 
309 
311 
313 
-304 
-303 
-315 
308 
310 
312 
-315 
-304 
-316 
309 
311 
313 
-314 
-305 
-317 
216 
246 
276 
-187 
-156 
-336 
217 
247 
277 
-186 
-157 
-337 
216 
246 
276 
-337 
-186 
-366 
217 
247 
277 
-336 
-187 
-367 
246 
276 
336 
-217 
-186 
-366 
247 
277 
337 
-216 
-187 
-367 
246 
276 
336 
-367 
-216 
-396 
247 
277 
337 
-366 
-217 
-397 
276 
336 
366 
-247 
-216 
-396 
277 
337 
367 
-246 
-217 
-397 
276 
336 
366 
-397 
-246 
-426 
277 
337 
367 
-396 
-247 
-427 
336 
366 
396 
-277 
-246 
-426 
337 
367 
397 
-276 
-247 
-427 
242 
274 
338 
-371 
-210 
-402 
243 
275 
339 
-370 
-211 
-403 
274 
338 
370 
-243 
-210 
-402 
275 
339 
371 
-242 
-211 
-403 
274 
338 
370 
-403 
-242 
-434 
275 
339 
371 
-402 
-243 
-435 
338 
370 
402 
-275 
-242 
-434 
339 
371 
403 
-274 
-243 
-435 
222 
250 
278 
-195 
-166 
-334 
223 
251 
279 
-194 
-167 
-335 
222 
250 
278 
-335 
-194 
-362 
223 
251 
279 
-334 
-195 
-363 
250 
278 
334 
-223 
-194 
-362 
251 
279 
335 
-222 
-195 
-363 
250 
278 
334 
-363 
-222 
-390 
251 
279 
335 
-362 
-223 
-391 
278 
334 
362 
-251 
-222 
-390 
279 
335 
363 
-250 
-223 
-391 
